N = 8;
H = 6;
T = 2;

avail = array3d(1..N, 1..H, 1..T, [7, 4, 9, 9, 1, 9, 1, 0, 10, 3, 2, 9, 10, 5, 1, 2, 3, 5, 1, 8, 9, 1, 8, 0, 9, 8, 4, 6, 7, 5, 1, 8, 7, 4, 6, 3, 1, 8, 2, 1, 10, 8, 6, 5, 4, 4, 10, 9, 8, 1, 4, 7, 3, 3, 0, 0, 5, 1, 4, 3, 4, 7, 3, 4, 8, 9, 9, 1, 7, 10, 0, 2, 0, 8, 1, 5, 7, 10, 8, 10, 6, 9, 10, 6, 3, 6, 6, 9, 9, 5, 6, 3, 2, 2, 1, 3]);

r = array2d(1..H, 1..T, [2, 3, 3, 0, 1, 1, 1, 2, 2, 3, 3, 4]);
